# Solution for model micodag
# Objective value = 6.8230783249146052e+00
s_0_1 0
s_1_0 0
s_1_3 0
s_3_1 0
s_1_4 0
s_4_1 2.3820281325111647e-01
s_2_3 0
s_3_2 2.1229723772655529e-01
s_2_5 6.8559955082668989e-01
s_5_2 0
s_3_4 0
s_4_3 4.4047384439206017e-01
s_4_5 0
s_5_4 0
s_4_6 0
s_6_4 6.1710676953634014e-01
s_4_7 0
s_7_4 7.1020207327952356e-01
s_5_6 0
s_6_5 1.1693926396719236e+00
s_0_0 9.9617473105796783e-01
s_1_1 6.1890794896794343e-01
s_2_2 3.48993639829872
s_3_3 6.9739286059432981e-01
s_4_4 0.618896283873883
s_5_5 1.3515773500175241e+00
s_6_6 1.7729126569294147e+00
s_7_7 2.0483994671711074e+00
Gamma_0_0 9.9808553293691660e-01
Gamma_0_1 0
Gamma_0_2 0
Gamma_0_3 0
Gamma_0_4 0
Gamma_0_5 0
Gamma_0_6 0
Gamma_0_7 0
Gamma_1_0 0
Gamma_1_1 7.8670702867582454e-01
Gamma_1_2 0
Gamma_1_3 0
Gamma_1_4 0
Gamma_1_5 0
Gamma_1_6 0
Gamma_1_7 0
Gamma_2_0 0
Gamma_2_1 0
Gamma_2_2 1.8681371465443108e+00
Gamma_2_3 0
Gamma_2_4 0
Gamma_2_5 -8.2800939054257772e-01
Gamma_2_6 0
Gamma_2_7 0
Gamma_3_0 0
Gamma_3_1 0
Gamma_3_2 4.6075724381343780e-01
Gamma_3_3 8.3510050927677582e-01
Gamma_3_4 0
Gamma_3_5 0
Gamma_3_6 0
Gamma_3_7 0
Gamma_4_0 0
Gamma_4_1 -4.8806025575856687e-01
Gamma_4_2 0
Gamma_4_3 6.6368203561047268e-01
Gamma_4_4 7.8669961476657913e-01
Gamma_4_5 0
Gamma_4_6 0
Gamma_4_7 0
Gamma_5_0 0
Gamma_5_1 0
Gamma_5_2 0
Gamma_5_3 0
Gamma_5_4 0
Gamma_5_5 1.1625735890762035e+00
Gamma_5_6 0
Gamma_5_7 0
Gamma_6_0 0
Gamma_6_1 0
Gamma_6_2 0
Gamma_6_3 0
Gamma_6_4 -7.8556143587649474e-01
Gamma_6_5 1.0813845937833242e+00
Gamma_6_6 1.33150766311329
Gamma_6_7 0
Gamma_7_0 0
Gamma_7_1 0
Gamma_7_2 0
Gamma_7_3 0
Gamma_7_4 -8.4273487721793272e-01
Gamma_7_5 0
Gamma_7_6 0
Gamma_7_7 1.4312230668805990e+00
psi_0 0
psi_1 2
psi_2 3
psi_3 2
psi_4 1
psi_5 4
psi_6 0
psi_7 0
g_0_0 0
g_0_1 0
g_0_2 0
g_0_3 0
g_0_4 0
g_0_5 0
g_0_6 0
g_0_7 0
g_1_0 0
g_1_1 0
g_1_2 0
g_1_3 0
g_1_4 0
g_1_5 0
g_1_6 0
g_1_7 0
g_2_0 0
g_2_1 0
g_2_2 0
g_2_3 0
g_2_4 0
g_2_5 1
g_2_6 0
g_2_7 0
g_3_0 0
g_3_1 0
g_3_2 1
g_3_3 0
g_3_4 0
g_3_5 0
g_3_6 0
g_3_7 0
g_4_0 0
g_4_1 1
g_4_2 0
g_4_3 1
g_4_4 0
g_4_5 0
g_4_6 0
g_4_7 0
g_5_0 0
g_5_1 0
g_5_2 0
g_5_3 0
g_5_4 0
g_5_5 0
g_5_6 0
g_5_7 0
g_6_0 0
g_6_1 0
g_6_2 0
g_6_3 0
g_6_4 1
g_6_5 1
g_6_6 0
g_6_7 0
g_7_0 0
g_7_1 0
g_7_2 0
g_7_3 0
g_7_4 1
g_7_5 0
g_7_6 0
g_7_7 0
T_0 3.8326039949510005e-03
T_1 4.7979872661603906e-01
T_2 -1.2498835120650966e+00
T_3 0.360406381967735
T_4 4.7981757465962005e-01
T_5 -3.0127231781401065e-01
T_6 -5.7262376300744222e-01
T_7 -0.717058740486678
